\* n-period-cost-min *\
Minimize
OBJ: 0.952380952381 I_1 + 0.613913253541 I_10 + 0.907029478458 I_2
 + 0.863837598531 I_3 + 0.822702474792 I_4 + 0.783526166468 I_5
 + 0.746215396637 I_6 + 0.71068133013 I_7 + 0.676839362029 I_8
 + 0.644608916218 I_9
Subject To
_C1: - 1000 I_1 - 1000 I_10 - 1000 I_2 - 1000 I_3 - 1000 I_4 - 1000 I_5
 - 1000 I_6 - 1000 I_7 - 1000 I_8 - 1000 I_9 <= -449000
_C10: I_1 + I_2 + I_3 + I_4 + I_5 >= -500
_C11: I_1 + I_2 + I_3 + I_4 + I_5 <= 500
_C12: I_1 + I_2 + I_3 + I_4 + I_5 + I_6 >= -600
_C13: I_1 + I_2 + I_3 + I_4 + I_5 + I_6 <= 400
_C14: I_1 + I_2 + I_3 + I_4 + I_5 + I_6 + I_7 >= -700
_C15: I_1 + I_2 + I_3 + I_4 + I_5 + I_6 + I_7 <= 300
_C16: I_1 + I_2 + I_3 + I_4 + I_5 + I_6 + I_7 + I_8 >= -800
_C17: I_1 + I_2 + I_3 + I_4 + I_5 + I_6 + I_7 + I_8 <= 200
_C18: I_1 + I_2 + I_3 + I_4 + I_5 + I_6 + I_7 + I_8 + I_9 >= -900
_C19: I_1 + I_2 + I_3 + I_4 + I_5 + I_6 + I_7 + I_8 + I_9 <= 100
_C2: I_1 >= -100
_C20: I_1 + I_10 + I_2 + I_3 + I_4 + I_5 + I_6 + I_7 + I_8 + I_9 >= -1000
_C21: I_1 + I_10 + I_2 + I_3 + I_4 + I_5 + I_6 + I_7 + I_8 + I_9 <= 0
_C22: I_1 <= 1000
_C23: I_1 >= -1000
_C24: I_2 <= 1000
_C25: I_2 >= -1000
_C26: I_3 <= 1000
_C27: I_3 >= -1000
_C28: I_4 <= 1000
_C29: I_4 >= -1000
_C3: I_1 <= 900
_C30: I_5 <= 1000
_C31: I_5 >= -1000
_C32: I_6 <= 1000
_C33: I_6 >= -1000
_C34: I_7 <= 1000
_C35: I_7 >= -1000
_C36: I_8 <= 1000
_C37: I_8 >= -1000
_C38: I_9 <= 1000
_C39: I_9 >= -1000
_C4: I_1 + I_2 >= -200
_C40: I_10 <= 1000
_C41: I_10 >= -1000
_C5: I_1 + I_2 <= 800
_C6: I_1 + I_2 + I_3 >= -300
_C7: I_1 + I_2 + I_3 <= 700
_C8: I_1 + I_2 + I_3 + I_4 >= -400
_C9: I_1 + I_2 + I_3 + I_4 <= 600
Bounds
I_1 free
I_10 free
I_2 free
I_3 free
I_4 free
I_5 free
I_6 free
I_7 free
I_8 free
I_9 free
End
